Solver command line: ['C:\\gurobi1102\\win64\\bin\\gurobi.bat']

Set parameter Username
Academic license - for non-commercial use only - expires 2025-06-25
Read LP format model from file C:\Users\danin\AppData\Local\Temp\tmp7vkrn_aa.pyomo.lp
Reading time = 0.11 seconds
x1: 16950 rows, 16875 columns, 109375 nonzeros
Set parameter Cuts to value 1
Set parameter Presolve to value 1
Set parameter TimeLimit to value 1800
Set parameter MIPGap to value 0.01
Set parameter Threads to value 6
Gurobi Optimizer version 11.0.2 build v11.0.2rc0 (win64 - Windows 11.0 (22631.2))

CPU model: AMD Ryzen 5 4600H with Radeon Graphics, instruction set [SSE2|AVX|AVX2]
Thread count: 6 physical cores, 12 logical processors, using up to 6 threads

Optimize a model with 16950 rows, 16875 columns and 109375 nonzeros
Model fingerprint: 0x7a7a922d
Variable types: 625 continuous, 16250 integer (16250 binary)
Coefficient statistics:
  Matrix range     [1e+00, 1e+03]
  Objective range  [1e+00, 4e+01]
  Bounds range     [1e+00, 1e+00]
  RHS range        [1e+00, 1e+03]
Found heuristic solution: objective 908.9911272
Presolve removed 14750 rows and 8000 columns
Presolve time: 0.19s
Presolved: 2200 rows, 8875 columns, 32725 nonzeros
Variable types: 475 continuous, 8400 integer (8400 binary)

Root relaxation: objective 1.918136e+02, 864 iterations, 0.02 seconds (0.04 work units)

    Nodes    |    Current Node    |     Objective Bounds      |     Work
 Expl Unexpl |  Obj  Depth IntInf | Incumbent    BestBd   Gap | It/Node Time

     0     0  191.81362    0   42  908.99113  191.81362  78.9%     -    0s
H    0     0                     485.5956041  191.81362  60.5%     -    0s
H    0     0                     332.0538295  191.81362  42.2%     -    0s
H    0     0                     272.3765172  191.81362  29.6%     -    0s
H    0     0                     270.5282944  191.81362  29.1%     -    0s
H    0     0                     191.8136198  191.81362  0.00%     -    0s
     0     0  191.81362    0   54  191.81362  191.81362  0.00%     -    0s

Cutting planes:
  Learned: 2
  Gomory: 2
  Cover: 1
  Implied bound: 8
  MIR: 3
  StrongCG: 1
  GUB cover: 1
  Zero half: 17
  RLT: 4
  Relax-and-lift: 1

Explored 1 nodes (1352 simplex iterations) in 0.40 seconds (0.29 work units)
Thread count was 6 (of 12 available processors)

Solution count 6: 191.814 270.528 272.377 ... 908.991

Optimal solution found (tolerance 1.00e-02)
Best objective 1.918136197787e+02, best bound 1.918136197787e+02, gap 0.0000%

